Projeto/saida/4_4__/Dados01.txt
84
84
0
0.01
1
 [6 9]
 [1 7]
 [[[0 1]
             [0 0]]]
 [[1 1]]
 [[0 1 0]
         [0 0 1]]
 [[1]
         [1]]
 [[[0 0 1]
             [1 0 1]
             [0 0 0]]]
 [[[1]]
         [[1]]]
 [2 1 7]
 [6 2 9]
 [[1 0 0 0 0 0 0 0 0 0]
         [0 0 0 0 0 0 1 0 0 0]]
 
[[[1 0 0]]
         [[0 0 1]]
         [[0 0 1]]]

 [[0 0 1]
         [1 0 1]
         [0 0 0]]


 [[[1 0 0]
             [0 0 0]]
         [[0 0 0]
             [0 0 1]]
         [[0 0 0]
             [0 0 1]]]


 [[0 0 0]
         [0 0 1]
         [0 0 0]]
